40
385
4
76
27
27
73
0 3
0 5
0 7
0 8
0 10
0 12
0 13
0 14
0 15
0 16
0 23
0 24
0 25
0 26
0 29
0 31
0 33
0 34
0 35
0 37
1 3
1 5
1 6
1 7
1 12
1 14
1 19
1 21
1 22
1 24
1 26
1 28
1 35
1 36
2 3
2 4
2 5
2 6
2 8
2 10
2 11
2 16
2 17
2 18
2 20
2 23
2 25
2 26
2 27
2 29
2 33
2 34
2 36
3 4
3 5
3 7
3 8
3 11
3 13
3 16
3 17
3 18
3 19
3 23
3 24
3 25
3 28
3 29
3 31
3 34
3 35
3 36
3 37
4 5
4 6
4 7
4 8
4 13
4 16
4 17
4 19
4 20
4 24
4 28
4 30
4 31
4 33
4 34
4 36
4 37
5 6
5 8
5 9
5 10
5 11
5 13
5 15
5 16
5 17
5 19
5 22
5 23
5 25
5 27
5 28
5 30
5 34
5 35
5 36
5 37
6 7
6 10
6 11
6 12
6 13
6 15
6 17
6 20
6 22
6 25
6 26
6 27
6 28
6 31
6 32
6 33
6 38
7 8
7 9
7 10
7 11
7 13
7 14
7 15
7 16
7 17
7 18
7 21
7 24
7 26
7 27
7 31
7 32
7 34
7 35
7 38
8 10
8 12
8 16
8 17
8 18
8 20
8 27
8 28
8 30
8 31
8 34
8 36
8 38
9 10
9 12
9 14
9 16
9 17
9 18
9 20
9 22
9 23
9 24
9 26
9 27
9 28
9 29
9 31
9 32
9 33
9 34
9 35
9 36
9 38
9 39
10 11
10 12
10 15
10 16
10 17
10 19
10 20
10 25
10 26
10 27
10 28
10 29
10 30
10 37
11 15
11 16
11 17
11 18
11 22
11 23
11 24
11 27
11 29
11 30
11 31
11 32
11 33
11 34
11 35
11 36
11 39
12 16
12 18
12 19
12 21
12 22
12 25
12 27
12 31
12 32
12 34
12 35
12 37
13 14
13 16
13 27
13 29
13 30
13 34
13 35
13 36
13 38
14 17
14 21
14 22
14 23
14 26
14 32
14 36
14 37
14 38
14 39
15 17
15 21
15 24
15 27
15 28
15 30
15 33
15 34
15 38
16 18
16 22
16 23
16 25
16 26
16 28
16 31
16 33
16 34
16 36
16 37
16 38
17 18
17 19
17 20
17 21
17 23
17 24
17 25
17 31
17 33
17 34
17 35
17 36
18 19
18 20
18 21
18 23
18 25
18 28
18 30
18 31
18 33
18 35
18 39
19 22
19 23
19 24
19 28
19 29
19 30
19 32
19 34
19 35
19 36
19 37
19 38
20 21
20 25
20 26
20 27
20 30
20 33
20 35
20 38
20 39
21 23
21 24
21 26
21 30
21 31
21 33
21 35
21 36
22 26
22 27
22 29
22 31
22 35
22 37
22 38
22 39
23 24
23 25
23 28
23 29
23 30
23 31
23 32
23 34
23 36
24 25
24 26
24 28
24 30
24 31
24 36
24 37
24 38
25 27
25 32
25 33
25 35
25 36
25 37
26 27
26 31
26 34
26 38
26 39
27 28
27 29
27 30
27 31
27 32
27 36
27 37
27 38
28 29
28 33
28 39
29 34
29 36
29 39
30 33
30 34
31 32
31 33
31 34
32 33
32 36
33 34
33 35
33 36
34 35
34 36
34 39
35 36
35 37
35 38
36 37
37 39
38 39
38 37 1 19 24 32 18 25 10 4
16 29 34 17 26 3 12 13 31 39
21 22 35 23 8 5 28 30 20 15
27 9 33 36 0 14 6 7 11 2
